db/data/1913923816284798247136508551701018794.z3.out
solvers/z3/run.sh: line 2: 169644 Killed                  z3 -smt2 $1
-------------------
81.221668315
